NAME          ClpDefau
ROWS
 N  OBJROW
 L  R_132_0
 L  R_132_1
 L  R_132_2
 L  R_132_3
 L  R_132_4
 L  R_132_5
 L  R_132_6
 L  R_132_7
 L  R_132_8
 L  R_132_9
 L  R_132_10
 L  R_132_11
 L  R_132_12
 L  R_132_13
 L  R_132_14
 L  R_132_15
 L  R_132_16
 L  R_132_17
 L  R_132_18
 L  R_132_19
 L  R_132_20
 L  R_132_21
 L  R_132_22
 L  R_132_23
 L  R_132_24
 L  R_132_25
 L  R_132_26
 L  R_132_27
 L  R_132_28
 L  R_132_29
 L  R_132_30
 L  R_132_31
COLUMNS
    x_0       OBJROW     -1.           R_132_4   4.          
    x_0       R_132_10  23.            R_132_12  42.         
    x_0       R_132_13  66.            R_132_17  58.         
    x_0       R_132_26  97.         
    x_1       OBJROW     -2.        
    x_2       OBJROW     -2.           R_132_0   25.         
    x_2       R_132_2   74.            R_132_7   67.         
    x_2       R_132_8   35.            R_132_14  47.         
    x_2       R_132_17  15.            R_132_19  94.         
    x_2       R_132_22  21.            R_132_25  76.         
    x_2       R_132_26  32.            R_132_27  5.          
    x_2       R_132_28  79.         
    x_3       OBJROW     -6.           R_132_4   34.         
    x_3       R_132_12  58.            R_132_28  22.         
    x_3       R_132_29  82.         
    x_4       OBJROW     -3.           R_132_1   32.         
    x_4       R_132_12  5.             R_132_14  66.         
    x_4       R_132_17  24.            R_132_19  4.          
    x_4       R_132_31  54.         
    x_5       OBJROW     -5.           R_132_5   16.         
    x_5       R_132_10  88.            R_132_12  26.         
    x_5       R_132_15  58.            R_132_16  82.         
    x_5       R_132_20  37.            R_132_21  40.         
    x_5       R_132_23  97.            R_132_25  48.         
    x_5       R_132_30  16.            R_132_31  79.         
    x_6       OBJROW     -5.           R_132_4   85.         
    x_6       R_132_6   91.            R_132_27  46.         
    x_6       R_132_28  70.            R_132_29  54.         
    x_7       OBJROW     -10.          R_132_3   38.         
    x_7       R_132_8   37.            R_132_9   70.         
    x_7       R_132_16  21.            R_132_23  57.         
    x_7       R_132_29  36.         
    x_8       OBJROW     -4.           R_132_15  60.         
    x_8       R_132_19  13.            R_132_20  28.         
    x_8       R_132_25  72.            R_132_27  96.         
    x_9       OBJROW     -10.          R_132_0   87.         
    x_9       R_132_7   1.             R_132_11  76.         
    x_9       R_132_17  11.            R_132_27  64.         
    x_9       R_132_31  72.         
    x_10      OBJROW     -1.           R_132_1   5.          
    x_10      R_132_11  41.            R_132_18  82.         
    x_10      R_132_22  65.            R_132_30  49.         
    x_11      OBJROW     -10.          R_132_7   92.         
    x_11      R_132_12  31.            R_132_16  18.         
    x_12      OBJROW     -3.           R_132_8   46.         
    x_12      R_132_10  24.            R_132_14  22.         
    x_12      R_132_26  41.         
    x_13      OBJROW     -7.           R_132_0   47.         
    x_13      R_132_9   19.            R_132_10  9.          
    x_13      R_132_13  67.            R_132_15  83.         
    x_14      OBJROW     -7.           R_132_2   14.         
    x_14      R_132_5   88.            R_132_7   51.         
    x_14      R_132_10  14.            R_132_13  55.         
    x_14      R_132_15  84.            R_132_19  18.         
    x_14      R_132_21  65.            R_132_23  70.         
    x_14      R_132_29  63.            R_132_30  70.         
    x_14      R_132_31  14.         
    x_15      OBJROW     -9.           R_132_13  27.         
    x_15      R_132_14  26.            R_132_30  71.         
RHS
    RHS       R_132_0   173.           R_132_1   172.        
    RHS       R_132_2   185.           R_132_3   197.        
    RHS       R_132_4   162.           R_132_5   201.        
    RHS       R_132_6   168.           R_132_7   200.        
    RHS       R_132_8   161.           R_132_9   207.        
    RHS       R_132_10  176.           R_132_11  204.        
    RHS       R_132_12  206.           R_132_13  190.        
    RHS       R_132_14  194.           R_132_15  163.        
    RHS       R_132_16  207.           R_132_17  209.        
    RHS       R_132_18  212.           R_132_19  174.        
    RHS       R_132_20  213.           R_132_21  169.        
    RHS       R_132_22  198.           R_132_23  180.        
    RHS       R_132_24  162.           R_132_25  204.        
    RHS       R_132_26  172.           R_132_27  166.        
    RHS       R_132_28  168.           R_132_29  200.        
    RHS       R_132_30  204.           R_132_31  194.        
BOUNDS
 UI BOUND     x_0       10.         
 UI BOUND     x_1       10.         
 UI BOUND     x_2       10.         
 UI BOUND     x_3       10.         
 UI BOUND     x_4       10.         
 UI BOUND     x_5       10.         
 UI BOUND     x_6       10.         
 UI BOUND     x_7       10.         
 UI BOUND     x_8       10.         
 UI BOUND     x_9       10.         
 UI BOUND     x_10      10.         
 UI BOUND     x_11      10.         
 UI BOUND     x_12      10.         
 UI BOUND     x_13      10.         
 UI BOUND     x_14      10.         
 UI BOUND     x_15      10.         
ENDATA
